%%% Exp_DoseResponse conditions	%%%
%% Description: 2 plates divided horizontally (top part and lower part have the same layout).
%% 2020/Nov/20: satisfiable. It generates 2 plates in 218 msec

%% Plate dimentions: (this is a 96-well plate)
num_rows = 8; %% height
num_cols = 12; %% width

vertical_cell_lines	 = 1;
horizontal_cell_lines	 = 2;
size_empty_edge = 1;
allow_empty_wells = true;

% New and used!
concentrations_on_different_rows = true;
concentrations_on_different_columns = true;

% New and unused! (Restriction: replicates_on_different_plates /\ replicates_on_same_plate == false)
replicates_on_different_plates = true;
replicates_on_same_plate = false;


%%% Compounds %%%
compounds = 2; %% number of drugs/compounds
compound_replicates	 = [1,1];
compound_concentrations	 = [1,1]; 

compound_concentration_names = [|"comp1-conc1"|"comb-conc1"|];
compound_concentration_indicators = [""]; 

compound_names = ["BPA","BPA+H"]; 


%%% Combinations %%%
combinations 	= 0;
combination_concentrations = 0;
combination_names = [];  
combination_concentration_names = [];


%% Controls %%
num_controls = 4;
control_concentrations = [1,1,1,1];
control_replicates = [10,10,10,8];
control_names = ["pos","neg","blank","dmso"];
control_concentration_names =  array2d(1..num_controls, 1..1,["cont\(i)-conc\(1)" | i in 1..num_controls]);